p cnf 29 70
a 10 4 0
e 1 2 3 5 6 7 8 9 11 12 13 14 15 16 17 18 19 20 21 22 23 24 25 26 27 28 29 0
-3 1 0
-3 2 0
-1 -2 3 0
-3 1 -4 0
3 -1 -4 0
-3 -1 4 0
3 1 4 0
-6 -5 0
-6 -5 0
5 6 0
-7 4 0
-7 6 0
-4 -6 7 0
9 -4 0
9 8 0
4 -8 -9 0
11 4 0
11 -10 0
-4 10 -11 0
-9 -11 -12 0
9 11 -12 0
-9 11 12 0
9 -11 12 0
-7 -12 -13 0
7 12 -13 0
-7 12 13 0
7 -12 13 0
1 3 -14 0
-1 -3 -14 0
1 -3 14 0
-1 3 14 0
15 13 0
15 -14 0
-13 14 -15 0
17 16 0
17 10 0
-16 -10 -17 0
8 -10 -19 0
-8 10 -19 0
8 10 19 0
-8 -10 19 0
-18 -19 -20 0
18 19 -20 0
-18 19 20 0
18 -19 20 0
21 -22 0
-21 -22 0
-23 -20 0
-23 22 0
20 -22 23 0
-24 -17 0
-24 23 0
17 -23 24 0
27 25 0
27 -26 0
-25 26 -27 0
-28 -24 0
-28 -27 0
24 27 28 0
-15 28 -29 0
15 -28 -29 0
-15 -28 29 0
15 28 29 0
-19 20 -4 17 2 0
-4 2 7 -24 25 0
19 -8 -2 7 14 0
24 21 -12 18 0
12 15 14 -19 -10 -27 0
4 -23 -17 28 11 -7 21 -5 0
29 0
